Assignment5/Shortest_path_data.lp
\ Model Shortest_path_data
\ LP format - for model browsing. Use MPS format to capture full model detail.
Minimize
  2 x13 + x12 + x23 + 2 x25 + 5 x24 + x35 + 2 x34 + 4 x36 + 3 x45 + 6 x46
   + 8 x47 + 3 x56 + 7 x57 + 5 x67 + 2 x68 + 6 x78
Subject To
 firstconstraint: x13 + x12 = 1
 secondconstraint: - x12 + x23 + x25 + x24 = 0
 thirdconstraint: - x13 - x23 + x35 + x34 + x36 = 0
 fourthconstraint: - x24 - x34 + x45 + x46 + x47 = 0
 fifthconstraint: - x25 - x35 - x45 + x56 + x57 = 0
 sixthconstraint: - x36 - x46 - x56 + x67 + x68 = 0
 seventhconstraint: - x47 - x57 - x67 + x78 = 0
 eighthconstraint: x68 + x78 = 1
Bounds
End
