Assignment5/shortest_path_data.txt
8 16
1 2 1.0
1 3 2.0
2 3 1.0
2 4 5.0
2 5 2.0
3 4 2.0
3 5 1.0
3 6 4.0
4 5 3.0
4 6 6.0
4 7 8.0
5 6 3.0
5 7 7.0
6 7 5.0
6 8 2.0
7 8 6.0